sing20210712.12
TTAA 62121 48698
99007 23800 01508 00084 24420 00505 92767 21208 03013
85498 17404 34506 70139 09000 33505 50587 03700 14511
40761 12702 14517 30974 27921 14517 25103 38931 09012
20251 52133 08025 15431 68342 09526 10663 80938 11036
88109 83928 09038
77999=
TTCC 62127 48698
70874 70363 27523
88999
77999=
TTDD 6212/ 48698
11963 75757 22951 70760 33930 69761 44896 67963 55640
73361 66610 71565
21212 11962 10017 22956 09511 33938 02001 44918 28010
55835 28033 66762 26521 77730 26531 88686 27518 99672
29018 11631 27511 22613 30503 33610 29004=
